# Objective value = 15896.71
I_0_0 2797
I_0_1 3947
I_0_2 3545
I_0_3 3.1620000000000009e+03
I_0_4 3527
I_0_5 3.0110000000000005e+03
I_0_6 4.1609999999999991e+03
I_1_0 158
I_1_1 79
I_1_2 0
I_1_3 1.5800000000000006e+02
I_1_4 7.9000000000000085e+01
I_1_5 158
I_1_6 7.8999999999999915e+01
I_2_0 138
I_2_1 69
I_2_2 2.8421709430404007e-14
I_2_3 1.3800000000000003e+02
I_2_4 69
I_2_5 138
I_2_6 6.8999999999999972e+01
I_3_0 32
I_3_1 16
I_3_2 -2.1316282072803006e-14
I_3_3 32
I_3_4 1.6000000000000004e+01
I_3_5 32
I_3_6 1.5999999999999998e+01
I_4_0 90
I_4_1 45
I_4_2 0
I_4_3 8.9999999999999972e+01
I_4_4 4.4999999999999972e+01
I_4_5 90
I_4_6 4.4999999999999574e+01
I_5_0 64
I_5_1 0
I_5_2 64
I_5_3 64
I_5_4 -3.5527136788005009e-15
I_5_5 6.4000000000000028e+01
I_5_6 -3.5527136788005009e-15
I_6_0 92
I_6_1 0
I_6_2 92
I_6_3 0
I_6_4 92
I_6_5 9.1999999999999986e+01
I_6_6 7.0399262589310650e-15
I_7_0 76
I_7_1 38
I_7_2 -1.4210854715202004e-14
I_7_3 7.5999999999999986e+01
I_7_4 3.7999999999999986e+01
I_7_5 7.5999999999999972e+01
I_7_6 3.7999999999999964e+01
I_8_0 60
I_8_1 0
I_8_2 60
I_8_3 60
I_8_4 6.6613381477509392e-15
I_8_5 5.9999999999999986e+01
I_8_6 6.6613381477509392e-15
I_9_0 42
I_9_1 0
I_9_2 42
I_9_3 42
I_9_4 2.6310122911490182e-15
I_9_5 4.1999999999999993e+01
I_9_6 3.2138793790772254e-15
I_10_0 116
I_10_1 58
I_10_2 0
I_10_3 116
I_10_4 1.1600000000000006e+02
I_10_5 5.8000000000000057e+01
I_10_6 5.8851192317678840e-14
I_11_0 59
I_11_1 0
I_11_2 59
I_11_3 59
I_11_4 1.6375789613221e-15
I_11_5 5.8999999999999986e+01
I_11_6 4.5147353182275310e-15
I_12_0 71
I_12_1 0
I_12_2 71
I_12_3 71
I_12_4 -1.9706458687096529e-14
I_12_5 71
I_12_6 0
I_13_0 72
I_13_1 36
I_13_2 7.2000000000000014e+01
I_13_3 3.6000000000000014e+01
I_13_4 -3.5527136788005009e-15
I_13_5 7.2000000000000014e+01
I_13_6 3.6000000000000028e+01
I_14_0 138
I_14_1 69
I_14_2 5.6843418860808015e-14
I_14_3 1.3800000000000006e+02
I_14_4 1.3799999999999994e+02
I_14_5 6.8999999999999957e+01
I_14_6 1.1758538896226162e-13
I_15_0 51
I_15_1 0
I_15_2 51
I_15_3 0
I_15_4 51
I_15_5 51
I_15_6 0
I_16_0 36
I_16_1 0
I_16_2 36
I_16_3 36
I_16_4 0
I_16_5 3.5999999999999979e+01
I_16_6 1.2476105491938017e-14
I_17_0 59
I_17_1 0
I_17_2 59
I_17_3 59
I_17_4 0
I_17_5 59
I_17_6 0
I_18_0 20
I_18_1 0
I_18_2 20
I_18_3 20
I_18_4 0
I_18_5 20
I_18_6 0
I_19_0 174
I_19_1 87
I_19_2 174
I_19_3 8.7000000000000014e+01
I_19_4 1.7399999999999980e+02
I_19_5 8.6999999999999616e+01
I_19_6 1.0114131754335179e-13
I_20_0 99
I_20_1 0
I_20_2 99
I_20_3 0
I_20_4 99
I_20_5 9.8999999999999972e+01
I_20_6 6.2016718291369713e-15
q_1_0 0
q_1_1 0
q_1_2 2.3700000000000006e+02
q_1_3 2.1316282072803006e-14
q_1_4 1.5799999999999989e+02
q_1_5 -7.1054273576010019e-15
q_2_0 0
q_2_1 -3.5527136788005009e-15
q_2_2 207
q_2_3 0
q_2_4 1.3800000000000003e+02
q_2_5 -1.4210854715202004e-14
q_3_0 0
q_3_1 0
q_3_2 4.8000000000000021e+01
q_3_3 0
q_3_4 3.1999999999999996e+01
q_3_5 0
q_4_0 0
q_4_1 0
q_4_2 1.3499999999999997e+02
q_4_3 3.5527136788005009e-15
q_4_4 9.0000000000000014e+01
q_4_5 -4.2632564145606011e-13
q_5_0 0
q_5_1 128
q_5_2 64
q_5_3 -3.5527136788005009e-15
q_5_4 1.2800000000000003e+02
q_5_5 -3.1974423109204508e-14
q_6_0 0
q_6_1 184
q_6_2 0
q_6_3 184
q_6_4 9.1999999999999986e+01
q_6_5 2.1250780974133070e-14
q_7_0 0
q_7_1 0
q_7_2 114
q_7_3 0
q_7_4 7.5999999999999972e+01
q_7_5 -1.0658141036401503e-14
q_8_0 0
q_8_1 120
q_8_2 60
q_8_3 6.6613381477509392e-15
q_8_4 1.1999999999999997e+02
q_8_5 2.0872192862952943e-14
q_9_0 0
q_9_1 84
q_9_2 42
q_9_3 2.6310122911490182e-15
q_9_4 84
q_9_5 1.0319306736678227e-14
q_10_0 0
q_10_1 0
q_10_2 174
q_10_3 5.8000000000000057e+01
q_10_4 0
q_10_5 0
q_11_0 0
q_11_1 118
q_11_2 59
q_11_3 1.6375789613221e-15
q_11_4 1.1799999999999999e+02
q_11_5 1.8725590033429535e-14
q_12_0 0
q_12_1 142
q_12_2 71
q_12_3 -1.9706458687096529e-14
q_12_4 142
q_12_5 0
q_13_0 0
q_13_1 7.1999999999999986e+01
q_13_2 3.5527136788004757e-15
q_13_3 -7.1054273576010019e-15
q_13_4 108
q_13_5 1.7763568394002505e-15
q_14_0 0
q_14_1 0
q_14_2 207
q_14_3 68.9999999999999
q_14_4 0
q_14_5 1.6216722872819048e-13
q_15_0 0
q_15_1 102
q_15_2 0
q_15_3 102
q_15_4 51
q_15_5 0
q_16_0 0
q_16_1 72
q_16_2 36
q_16_3 0
q_16_4 7.1999999999999972e+01
q_16_5 3.3792387564741022e-14
q_17_0 0
q_17_1 118
q_17_2 59
q_17_3 0
q_17_4 118
q_17_5 0
q_18_0 0
q_18_1 40
q_18_2 20
q_18_3 0
q_18_4 40
q_18_5 0
q_19_0 0
q_19_1 174
q_19_2 0
q_19_3 1.7399999999999980e+02
q_19_4 -4.38538094726933e-14
q_19_5 0
q_20_0 0
q_20_1 198
q_20_2 0
q_20_3 198
q_20_4 9.8999999999999972e+01
q_20_5 3.4623381259540980e-14
y_0_0 0
y_0_1 1
y_0_2 1
y_0_3 1
y_0_4 1
y_0_5 7.6520937597076792e-17
y_1_0 0
y_1_1 0
y_1_2 1.0000000000000002e+00
y_1_3 5.5511151231257827e-17
y_1_4 1
y_1_5 0
y_2_0 0
y_2_1 -2.7755575615628914e-17
y_2_2 1.0000000000000002e+00
y_2_3 0
y_2_4 1.0000000000000002e+00
y_2_5 0
y_3_0 0
y_3_1 0
y_3_2 1
y_3_3 -1.1102230246251575e-16
y_3_4 1
y_3_5 0
y_4_0 0
y_4_1 0
y_4_2 9.9999999999999978e-01
y_4_3 0
y_4_4 9.9999999999999989e-01
y_4_5 1.3322676295501878e-15
y_5_0 0
y_5_1 1
y_5_2 1
y_5_3 -5.5511151231257827e-17
y_5_4 1.0000000000000004e+00
y_5_5 -5.5511151231257827e-17
y_6_0 0
y_6_1 1
y_6_2 0
y_6_3 1
y_6_4 9.9999999999999978e-01
y_6_5 7.6520937597076792e-17
y_7_0 0
y_7_1 0
y_7_2 1
y_7_3 5.5511151231257827e-17
y_7_4 1
y_7_5 0
y_8_0 0
y_8_1 1
y_8_2 1
y_8_3 1.1102230246251565e-16
y_8_4 9.9999999999999978e-01
y_8_5 1.1102230246251565e-16
y_9_0 0
y_9_1 1
y_9_2 1
y_9_3 6.2643149789262335e-17
y_9_4 9.9999999999999978e-01
y_9_5 7.6520937597076792e-17
y_10_0 0
y_10_1 0
y_10_2 1.0000000000000002e+00
y_10_3 1
y_10_4 0
y_10_5 0
y_11_0 0
y_11_1 1
y_11_2 1
y_11_3 2.7755575615628815e-17
y_11_4 9.9999999999999978e-01
y_11_5 7.6520937597076792e-17
y_12_0 0
y_12_1 1
y_12_2 1
y_12_3 -2.7755575615628914e-16
y_12_4 1
y_12_5 0
y_13_0 0
y_13_1 9.9999999999999978e-01
y_13_2 5.5511151231257630e-17
y_13_3 0
y_13_4 1
y_13_5 1.3877787807814457e-17
y_14_0 0
y_14_1 0
y_14_2 1
y_14_3 9.9999999999999967e-01
y_14_4 0
y_14_5 7.9816590360342822e-16
y_15_0 0
y_15_1 1
y_15_2 0
y_15_3 1
y_15_4 1
y_15_5 0
y_16_0 0
y_16_1 1
y_16_2 1
y_16_3 0
y_16_4 9.9999999999999933e-01
y_16_5 3.4655848588716711e-16
y_17_0 0
y_17_1 1
y_17_2 1
y_17_3 0
y_17_4 1
y_17_5 0
y_18_0 0
y_18_1 1
y_18_2 1
y_18_3 0
y_18_4 1
y_18_5 0
y_19_0 0
y_19_1 1
y_19_2 0
y_19_3 9.9999999999999911e-01
y_19_4 1.2420620087993943e-15
y_19_5 0
y_20_0 0
y_20_1 1
y_20_2 0
y_20_3 1
y_20_4 9.9999999999999978e-01
y_20_5 6.2643149789262335e-17
x_0_1_0 0
x_0_1_1 0
x_0_1_2 0
x_0_1_3 0
x_0_1_4 0
x_0_1_5 0
x_0_2_0 0
x_0_2_1 -2.7755575615628914e-17
x_0_2_2 0
x_0_2_3 0
x_0_2_4 1
x_0_2_5 0
x_0_3_0 0
x_0_3_1 0
x_0_3_2 0
x_0_3_3 0
x_0_3_4 0
x_0_3_5 0
x_0_4_0 0
x_0_4_1 0
x_0_4_2 9.9999999999999978e-01
x_0_4_3 -9.4368957093138345e-16
x_0_4_4 3.26321118137737e-16
x_0_4_5 0
x_0_5_0 0
x_0_5_1 0
x_0_5_2 0
x_0_5_3 0
x_0_5_4 0
x_0_5_5 0
x_0_6_0 0
x_0_6_1 9.9999999999999978e-01
x_0_6_2 0
x_0_6_3 1.0000000000000011e+00
x_0_6_4 9.9999999999999956e-01
x_0_6_5 1.5304187519415358e-16
x_0_7_0 0
x_0_7_1 0
x_0_7_2 0
x_0_7_3 0
x_0_7_4 0
x_0_7_5 0
x_0_8_0 0
x_0_8_1 0
x_0_8_2 0
x_0_8_3 0
x_0_8_4 0
x_0_8_5 0
x_0_9_0 0
x_0_9_1 0
x_0_9_2 0
x_0_9_3 0
x_0_9_4 0
x_0_9_5 0
x_0_10_0 0
x_0_10_1 0
x_0_10_2 1.0000000000000004e+00
x_0_10_3 1.0000000000000004e+00
x_0_10_4 0
x_0_10_5 0
x_0_11_0 0
x_0_11_1 0
x_0_11_2 0
x_0_11_3 0
x_0_11_4 0
x_0_11_5 0
x_0_12_0 0
x_0_12_1 0
x_0_12_2 0
x_0_12_3 0
x_0_12_4 0
x_0_12_5 0
x_0_13_0 0
x_0_13_1 0
x_0_13_2 -2.7755575615629012e-17
x_0_13_3 0
x_0_13_4 0
x_0_13_5 0
x_0_14_0 0
x_0_14_1 0
x_0_14_2 0
x_0_14_3 -5.0380231835448411e-15
x_0_14_4 0
x_0_14_5 0
x_0_15_0 0
x_0_15_1 0
x_0_15_2 0
x_0_15_3 0
x_0_15_4 0
x_0_15_5 0
x_0_16_0 0
x_0_16_1 0
x_0_16_2 0
x_0_16_3 0
x_0_16_4 0
x_0_16_5 0
x_0_17_0 0
x_0_17_1 0
x_0_17_2 0
x_0_17_3 0
x_0_17_4 0
x_0_17_5 0
x_0_18_0 0
x_0_18_1 0
x_0_18_2 0
x_0_18_3 0
x_0_18_4 0
x_0_18_5 0
x_0_19_0 0
x_0_19_1 1.0000000000000002e+00
x_0_19_2 0
x_0_19_3 0
x_0_19_4 0
x_0_19_5 0
x_0_20_0 0
x_0_20_1 0
x_0_20_2 0
x_0_20_3 4.07332382624764e-15
x_0_20_4 0
x_0_20_5 0
x_1_2_0 0
x_1_2_1 0
x_1_2_2 0
x_1_2_3 0
x_1_2_4 0
x_1_2_5 0
x_1_3_0 0
x_1_3_1 0
x_1_3_2 0
x_1_3_3 -2.2414558356161314e-15
x_1_3_4 0
x_1_3_5 0
x_1_4_0 0
x_1_4_1 0
x_1_4_2 0
x_1_4_3 0
x_1_4_4 0
x_1_4_5 0
x_1_5_0 0
x_1_5_1 0
x_1_5_2 1.0000000000000002e+00
x_1_5_3 -2.22044604925031e-16
x_1_5_4 1
x_1_5_5 -1.1102230246251565e-16
x_1_6_0 0
x_1_6_1 0
x_1_6_2 0
x_1_6_3 0
x_1_6_4 0
x_1_6_5 0
x_1_7_0 0
x_1_7_1 0
x_1_7_2 1.0000000000000002e+00
x_1_7_3 2.22044604925031e-16
x_1_7_4 1
x_1_7_5 -2.7755575615628914e-17
x_1_8_0 0
x_1_8_1 0
x_1_8_2 0
x_1_8_3 0
x_1_8_4 0
x_1_8_5 0
x_1_9_0 0
x_1_9_1 0
x_1_9_2 0
x_1_9_3 0
x_1_9_4 0
x_1_9_5 0
x_1_10_0 0
x_1_10_1 0
x_1_10_2 0
x_1_10_3 0
x_1_10_4 0
x_1_10_5 0
x_1_11_0 0
x_1_11_1 0
x_1_11_2 0
x_1_11_3 0
x_1_11_4 0
x_1_11_5 0
x_1_12_0 0
x_1_12_1 0
x_1_12_2 0
x_1_12_3 0
x_1_12_4 0
x_1_12_5 0
x_1_13_0 0
x_1_13_1 0
x_1_13_2 0
x_1_13_3 0
x_1_13_4 0
x_1_13_5 0
x_1_14_0 0
x_1_14_1 0
x_1_14_2 0
x_1_14_3 0
x_1_14_4 0
x_1_14_5 0
x_1_15_0 0
x_1_15_1 0
x_1_15_2 0
x_1_15_3 0
x_1_15_4 0
x_1_15_5 0
x_1_16_0 0
x_1_16_1 0
x_1_16_2 0
x_1_16_3 0
x_1_16_4 0
x_1_16_5 0
x_1_17_0 0
x_1_17_1 0
x_1_17_2 0
x_1_17_3 0
x_1_17_4 0
x_1_17_5 0
x_1_18_0 0
x_1_18_1 0
x_1_18_2 0
x_1_18_3 2.3524781380786471e-15
x_1_18_4 0
x_1_18_5 0
x_1_19_0 0
x_1_19_1 0
x_1_19_2 0
x_1_19_3 0
x_1_19_4 0
x_1_19_5 0
x_1_20_0 0
x_1_20_1 0
x_1_20_2 0
x_1_20_3 0
x_1_20_4 0
x_1_20_5 0
x_2_3_0 0
x_2_3_1 0
x_2_3_2 0
x_2_3_3 0
x_2_3_4 0
x_2_3_5 0
x_2_4_0 0
x_2_4_1 0
x_2_4_2 0
x_2_4_3 0
x_2_4_4 0
x_2_4_5 0
x_2_5_0 0
x_2_5_1 0
x_2_5_2 0
x_2_5_3 0
x_2_5_4 0
x_2_5_5 0
x_2_6_0 0
x_2_6_1 0
x_2_6_2 0
x_2_6_3 0
x_2_6_4 0
x_2_6_5 0
x_2_7_0 0
x_2_7_1 0
x_2_7_2 0
x_2_7_3 0
x_2_7_4 0
x_2_7_5 0
x_2_8_0 0
x_2_8_1 -2.7755575615628914e-17
x_2_8_2 1.0000000000000002e+00
x_2_8_3 0
x_2_8_4 1.0000000000000002e+00
x_2_8_5 0
x_2_9_0 0
x_2_9_1 0
x_2_9_2 0
x_2_9_3 0
x_2_9_4 0
x_2_9_5 0
x_2_10_0 0
x_2_10_1 0
x_2_10_2 0
x_2_10_3 0
x_2_10_4 -2.9938430625548211e-15
x_2_10_5 0
x_2_11_0 0
x_2_11_1 0
x_2_11_2 0
x_2_11_3 0
x_2_11_4 0
x_2_11_5 0
x_2_12_0 0
x_2_12_1 0
x_2_12_2 0
x_2_12_3 0
x_2_12_4 0
x_2_12_5 0
x_2_13_0 0
x_2_13_1 0
x_2_13_2 0
x_2_13_3 0
x_2_13_4 0
x_2_13_5 0
x_2_14_0 0
x_2_14_1 0
x_2_14_2 1.0000000000000002e+00
x_2_14_3 5.1557912752571670e-15
x_2_14_4 0
x_2_14_5 0
x_2_15_0 0
x_2_15_1 0
x_2_15_2 0
x_2_15_3 0
x_2_15_4 0
x_2_15_5 0
x_2_16_0 0
x_2_16_1 0
x_2_16_2 0
x_2_16_3 -5.1002801240259091e-15
x_2_16_4 0
x_2_16_5 0
x_2_17_0 0
x_2_17_1 0
x_2_17_2 0
x_2_17_3 0
x_2_17_4 0
x_2_17_5 0
x_2_18_0 0
x_2_18_1 0
x_2_18_2 0
x_2_18_3 0
x_2_18_4 0
x_2_18_5 0
x_2_19_0 0
x_2_19_1 0
x_2_19_2 0
x_2_19_3 0
x_2_19_4 0
x_2_19_5 0
x_2_20_0 0
x_2_20_1 0
x_2_20_2 0
x_2_20_3 0
x_2_20_4 3.1048653650173367e-15
x_2_20_5 0
x_3_4_0 0
x_3_4_1 0
x_3_4_2 0
x_3_4_3 -2.4079892893099061e-15
x_3_4_4 0
x_3_4_5 0
x_3_5_0 0
x_3_5_1 0
x_3_5_2 0
x_3_5_3 0
x_3_5_4 0
x_3_5_5 0
x_3_6_0 0
x_3_6_1 0
x_3_6_2 0
x_3_6_3 0
x_3_6_4 0
x_3_6_5 0
x_3_7_0 0
x_3_7_1 0
x_3_7_2 0
x_3_7_3 4.1633363423443494e-17
x_3_7_4 1
x_3_7_5 0
x_3_8_0 0
x_3_8_1 0
x_3_8_2 0
x_3_8_3 0
x_3_8_4 0
x_3_8_5 0
x_3_9_0 0
x_3_9_1 0
x_3_9_2 8.3266726846886642e-17
x_3_9_3 -6.7457892498097761e-18
x_3_9_4 0
x_3_9_5 0
x_3_10_0 0
x_3_10_1 0
x_3_10_2 0
x_3_10_3 0
x_3_10_4 0
x_3_10_5 0
x_3_11_0 0
x_3_11_1 0
x_3_11_2 1
x_3_11_3 1.2212453270876722e-15
x_3_11_4 1
x_3_11_5 0
x_3_12_0 0
x_3_12_1 0
x_3_12_2 0
x_3_12_3 0
x_3_12_4 0
x_3_12_5 0
x_3_13_0 0
x_3_13_1 0
x_3_13_2 0
x_3_13_3 0
x_3_13_4 0
x_3_13_5 0
x_3_14_0 0
x_3_14_1 0
x_3_14_2 0
x_3_14_3 0
x_3_14_4 0
x_3_14_5 0
x_3_15_0 0
x_3_15_1 0
x_3_15_2 0
x_3_15_3 0
x_3_15_4 0
x_3_15_5 0
x_3_16_0 0
x_3_16_1 0
x_3_16_2 0
x_3_16_3 0
x_3_16_4 0
x_3_16_5 0
x_3_17_0 0
x_3_17_1 0
x_3_17_2 1
x_3_17_3 2.4079892893099049e-15
x_3_17_4 9.3771620029796322e-17
x_3_17_5 0
x_3_18_0 0
x_3_18_1 0
x_3_18_2 0
x_3_18_3 0
x_3_18_4 0
x_3_18_5 0
x_3_19_0 0
x_3_19_1 0
x_3_19_2 0
x_3_19_3 0
x_3_19_4 0
x_3_19_5 0
x_3_20_0 0
x_3_20_1 0
x_3_20_2 0
x_3_20_3 0
x_3_20_4 0
x_3_20_5 0
x_4_5_0 0
x_4_5_1 0
x_4_5_2 0
x_4_5_3 0
x_4_5_4 0
x_4_5_5 0
x_4_6_0 0
x_4_6_1 0
x_4_6_2 0
x_4_6_3 0
x_4_6_4 0
x_4_6_5 0
x_4_7_0 0
x_4_7_1 0
x_4_7_2 0
x_4_7_3 0
x_4_7_4 0
x_4_7_5 0
x_4_8_0 0
x_4_8_1 0
x_4_8_2 0
x_4_8_3 0
x_4_8_4 0
x_4_8_5 0
x_4_9_0 0
x_4_9_1 0
x_4_9_2 9.9999999999999978e-01
x_4_9_3 1.9222667160363997e-15
x_4_9_4 9.9999999999999811e-01
x_4_9_5 1.4432899320127033e-15
x_4_10_0 0
x_4_10_1 0
x_4_10_2 0
x_4_10_3 0
x_4_10_4 0
x_4_10_5 0
x_4_11_0 0
x_4_11_1 0
x_4_11_2 0
x_4_11_3 0
x_4_11_4 0
x_4_11_5 0
x_4_12_0 0
x_4_12_1 0
x_4_12_2 0
x_4_12_3 0
x_4_12_4 0
x_4_12_5 0
x_4_13_0 0
x_4_13_1 0
x_4_13_2 2.7755575615628815e-17
x_4_13_3 4.1633363423443370e-17
x_4_13_4 1.0000000000000002e+00
x_4_13_5 9.99200722162641e-16
x_4_14_0 0
x_4_14_1 0
x_4_14_2 0
x_4_14_3 0
x_4_14_4 0
x_4_14_5 0
x_4_15_0 0
x_4_15_1 0
x_4_15_2 0
x_4_15_3 1.3322676295501886e-15
x_4_15_4 0
x_4_15_5 0
x_4_16_0 0
x_4_16_1 0
x_4_16_2 0
x_4_16_3 0
x_4_16_4 0
x_4_16_5 0
x_4_17_0 0
x_4_17_1 0
x_4_17_2 0
x_4_17_3 0
x_4_17_4 0
x_4_17_5 0
x_4_18_0 0
x_4_18_1 0
x_4_18_2 0
x_4_18_3 0
x_4_18_4 0
x_4_18_5 0
x_4_19_0 0
x_4_19_1 0
x_4_19_2 0
x_4_19_3 0
x_4_19_4 0
x_4_19_5 0
x_4_20_0 0
x_4_20_1 0
x_4_20_2 0
x_4_20_3 0
x_4_20_4 0
x_4_20_5 0
x_5_6_0 0
x_5_6_1 0
x_5_6_2 0
x_5_6_3 0
x_5_6_4 0
x_5_6_5 0
x_5_7_0 0
x_5_7_1 0
x_5_7_2 0
x_5_7_3 0
x_5_7_4 0
x_5_7_5 0
x_5_8_0 0
x_5_8_1 0
x_5_8_2 0
x_5_8_3 0
x_5_8_4 0
x_5_8_5 -1.0614576626437087e-15
x_5_9_0 0
x_5_9_1 0
x_5_9_2 0
x_5_9_3 0
x_5_9_4 0
x_5_9_5 0
x_5_10_0 0
x_5_10_1 0
x_5_10_2 0
x_5_10_3 0
x_5_10_4 0
x_5_10_5 0
x_5_11_0 0
x_5_11_1 0
x_5_11_2 0
x_5_11_3 0
x_5_11_4 0
x_5_11_5 0
x_5_12_0 0
x_5_12_1 1
x_5_12_2 1
x_5_12_3 0
x_5_12_4 1
x_5_12_5 0
x_5_13_0 0
x_5_13_1 0
x_5_13_2 0
x_5_13_3 0
x_5_13_4 0
x_5_13_5 0
x_5_14_0 0
x_5_14_1 0
x_5_14_2 0
x_5_14_3 0
x_5_14_4 0
x_5_14_5 0
x_5_15_0 0
x_5_15_1 0
x_5_15_2 0
x_5_15_3 0
x_5_15_4 0
x_5_15_5 0
x_5_16_0 0
x_5_16_1 0
x_5_16_2 0
x_5_16_3 0
x_5_16_4 0
x_5_16_5 0
x_5_17_0 0
x_5_17_1 0
x_5_17_2 0
x_5_17_3 0
x_5_17_4 0
x_5_17_5 0
x_5_18_0 0
x_5_18_1 1
x_5_18_2 0
x_5_18_3 -2.9582283945787943e-31
x_5_18_4 1.1102230246251565e-16
x_5_18_5 1.2002355407218533e-15
x_5_19_0 0
x_5_19_1 0
x_5_19_2 0
x_5_19_3 0
x_5_19_4 0
x_5_19_5 0
x_5_20_0 0
x_5_20_1 0
x_5_20_2 0
x_5_20_3 0
x_5_20_4 0
x_5_20_5 0
x_6_7_0 0
x_6_7_1 0
x_6_7_2 0
x_6_7_3 0
x_6_7_4 0
x_6_7_5 0
x_6_8_0 0
x_6_8_1 0
x_6_8_2 0
x_6_8_3 0
x_6_8_4 0
x_6_8_5 0
x_6_9_0 0
x_6_9_1 0
x_6_9_2 0
x_6_9_3 0
x_6_9_4 0
x_6_9_5 0
x_6_10_0 0
x_6_10_1 0
x_6_10_2 0
x_6_10_3 0
x_6_10_4 0
x_6_10_5 0
x_6_11_0 0
x_6_11_1 0
x_6_11_2 0
x_6_11_3 0
x_6_11_4 0
x_6_11_5 0
x_6_12_0 0
x_6_12_1 0
x_6_12_2 0
x_6_12_3 0
x_6_12_4 0
x_6_12_5 0
x_6_13_0 0
x_6_13_1 0
x_6_13_2 0
x_6_13_3 0
x_6_13_4 0
x_6_13_5 0
x_6_14_0 0
x_6_14_1 0
x_6_14_2 0
x_6_14_3 0
x_6_14_4 0
x_6_14_5 0
x_6_15_0 0
x_6_15_1 1
x_6_15_2 0
x_6_15_3 1.0000000000000018e+00
x_6_15_4 1.0000000000000004e+00
x_6_15_5 0
x_6_16_0 0
x_6_16_1 0
x_6_16_2 0
x_6_16_3 0
x_6_16_4 0
x_6_16_5 0
x_6_17_0 0
x_6_17_1 0
x_6_17_2 0
x_6_17_3 0
x_6_17_4 0
x_6_17_5 0
x_6_18_0 0
x_6_18_1 0
x_6_18_2 0
x_6_18_3 0
x_6_18_4 0
x_6_18_5 0
x_6_19_0 0
x_6_19_1 2.7755575615628914e-17
x_6_19_2 0
x_6_19_3 0
x_6_19_4 0
x_6_19_5 0
x_6_20_0 0
x_6_20_1 0
x_6_20_2 0
x_6_20_3 -1.5543122344752184e-15
x_6_20_4 1.4552366732795449e-16
x_6_20_5 0
x_7_8_0 0
x_7_8_1 0
x_7_8_2 0
x_7_8_3 0
x_7_8_4 0
x_7_8_5 0
x_7_9_0 0
x_7_9_1 0
x_7_9_2 0
x_7_9_3 0
x_7_9_4 0
x_7_9_5 0
x_7_10_0 0
x_7_10_1 0
x_7_10_2 0
x_7_10_3 0
x_7_10_4 0
x_7_10_5 0
x_7_11_0 0
x_7_11_1 0
x_7_11_2 0
x_7_11_3 0
x_7_11_4 0
x_7_11_5 0
x_7_12_0 0
x_7_12_1 0
x_7_12_2 0
x_7_12_3 0
x_7_12_4 0
x_7_12_5 0
x_7_13_0 0
x_7_13_1 0
x_7_13_2 0
x_7_13_3 0
x_7_13_4 0
x_7_13_5 0
x_7_14_0 0
x_7_14_1 0
x_7_14_2 0
x_7_14_3 0
x_7_14_4 0
x_7_14_5 0
x_7_15_0 0
x_7_15_1 0
x_7_15_2 0
x_7_15_3 0
x_7_15_4 0
x_7_15_5 0
x_7_16_0 0
x_7_16_1 0
x_7_16_2 0
x_7_16_3 0
x_7_16_4 0
x_7_16_5 0
x_7_17_0 0
x_7_17_1 0
x_7_17_2 0
x_7_17_3 -1.3877787807814297e-17
x_7_17_4 -1.2827298489523510e-16
x_7_17_5 -2.7755575615628914e-17
x_7_18_0 0
x_7_18_1 0
x_7_18_2 9.9999999999999978e-01
x_7_18_3 0
x_7_18_4 0
x_7_18_5 0
x_7_19_0 0
x_7_19_1 0
x_7_19_2 0
x_7_19_3 0
x_7_19_4 0
x_7_19_5 0
x_7_20_0 0
x_7_20_1 0
x_7_20_2 0
x_7_20_3 0
x_7_20_4 0
x_7_20_5 0
x_8_9_0 0
x_8_9_1 0
x_8_9_2 0
x_8_9_3 0
x_8_9_4 0
x_8_9_5 0
x_8_10_0 0
x_8_10_1 0
x_8_10_2 0
x_8_10_3 0
x_8_10_4 0
x_8_10_5 0
x_8_11_0 0
x_8_11_1 0
x_8_11_2 0
x_8_11_3 0
x_8_11_4 0
x_8_11_5 0
x_8_12_0 0
x_8_12_1 0
x_8_12_2 0
x_8_12_3 -2.2204460492503123e-15
x_8_12_4 0
x_8_12_5 0
x_8_13_0 0
x_8_13_1 0
x_8_13_2 0
x_8_13_3 0
x_8_13_4 0
x_8_13_5 0
x_8_14_0 0
x_8_14_1 0
x_8_14_2 0
x_8_14_3 0
x_8_14_4 0
x_8_14_5 9.6469935729720180e-16
x_8_15_0 0
x_8_15_1 0
x_8_15_2 0
x_8_15_3 0
x_8_15_4 0
x_8_15_5 0
x_8_16_0 0
x_8_16_1 1
x_8_16_2 1
x_8_16_3 2.3869795029440858e-15
x_8_16_4 1
x_8_16_5 4.5758078834968276e-16
x_8_17_0 0
x_8_17_1 0
x_8_17_2 0
x_8_17_3 0
x_8_17_4 0
x_8_17_5 0
x_8_18_0 0
x_8_18_1 0
x_8_18_2 0
x_8_18_3 0
x_8_18_4 0
x_8_18_5 0
x_8_19_0 0
x_8_19_1 0
x_8_19_2 0
x_8_19_3 0
x_8_19_4 0
x_8_19_5 0
x_8_20_0 0
x_8_20_1 1.0000000000000002e+00
x_8_20_2 0
x_8_20_3 0
x_8_20_4 -3.3306690738754696e-16
x_8_20_5 0
x_9_10_0 0
x_9_10_1 0
x_9_10_2 0
x_9_10_3 0
x_9_10_4 0
x_9_10_5 0
x_9_11_0 0
x_9_11_1 1
x_9_11_2 1.0000000000000002e+00
x_9_11_3 -1.3045120539345593e-15
x_9_11_4 9.9999999999999978e-01
x_9_11_5 6.2643149789262335e-17
x_9_12_0 0
x_9_12_1 0
x_9_12_2 0
x_9_12_3 0
x_9_12_4 0
x_9_12_5 0
x_9_13_0 0
x_9_13_1 1
x_9_13_2 5.5511151231257630e-17
x_9_13_3 0
x_9_13_4 1.4781775061863369e-15
x_9_13_5 -6.7287960402490360e-16
x_9_14_0 0
x_9_14_1 0
x_9_14_2 0
x_9_14_3 0
x_9_14_4 0
x_9_14_5 0
x_9_15_0 0
x_9_15_1 -3.9443045261050590e-31
x_9_15_2 0
x_9_15_3 0
x_9_15_4 0
x_9_15_5 0
x_9_16_0 0
x_9_16_1 0
x_9_16_2 0
x_9_16_3 0
x_9_16_4 0
x_9_16_5 0
x_9_17_0 0
x_9_17_1 0
x_9_17_2 0
x_9_17_3 0
x_9_17_4 0
x_9_17_5 0
x_9_18_0 0
x_9_18_1 0
x_9_18_2 0
x_9_18_3 0
x_9_18_4 0
x_9_18_5 0
x_9_19_0 0
x_9_19_1 0
x_9_19_2 -2.7755575615628815e-17
x_9_19_3 0
x_9_19_4 0
x_9_19_5 0
x_9_20_0 0
x_9_20_1 0
x_9_20_2 0
x_9_20_3 0
x_9_20_4 0
x_9_20_5 0
x_10_11_0 0
x_10_11_1 0
x_10_11_2 0
x_10_11_3 0
x_10_11_4 0
x_10_11_5 0
x_10_12_0 0
x_10_12_1 0
x_10_12_2 0
x_10_12_3 0
x_10_12_4 0
x_10_12_5 0
x_10_13_0 0
x_10_13_1 0
x_10_13_2 0
x_10_13_3 0
x_10_13_4 0
x_10_13_5 0
x_10_14_0 0
x_10_14_1 0
x_10_14_2 1
x_10_14_3 9.9999999999999922e-01
x_10_14_4 1.8183764121318864e-15
x_10_14_5 0
x_10_15_0 0
x_10_15_1 0
x_10_15_2 0
x_10_15_3 0
x_10_15_4 0
x_10_15_5 0
x_10_16_0 0
x_10_16_1 0
x_10_16_2 0
x_10_16_3 0
x_10_16_4 0
x_10_16_5 0
x_10_17_0 0
x_10_17_1 0
x_10_17_2 0
x_10_17_3 0
x_10_17_4 0
x_10_17_5 0
x_10_18_0 0
x_10_18_1 0
x_10_18_2 0
x_10_18_3 0
x_10_18_4 0
x_10_18_5 0
x_10_19_0 0
x_10_19_1 0
x_10_19_2 0
x_10_19_3 0
x_10_19_4 0
x_10_19_5 0
x_10_20_0 0
x_10_20_1 0
x_10_20_2 0
x_10_20_3 0
x_10_20_4 1.1199554991916767e-15
x_10_20_5 0
x_11_12_0 0
x_11_12_1 0
x_11_12_2 0
x_11_12_3 0
x_11_12_4 0
x_11_12_5 0
x_11_13_0 0
x_11_13_1 0
x_11_13_2 0
x_11_13_3 0
x_11_13_4 0
x_11_13_5 1.8754324005959242e-16
x_11_14_0 0
x_11_14_1 0
x_11_14_2 0
x_11_14_3 0
x_11_14_4 0
x_11_14_5 0
x_11_15_0 0
x_11_15_1 0
x_11_15_2 0
x_11_15_3 0
x_11_15_4 0
x_11_15_5 0
x_11_16_0 0
x_11_16_1 0
x_11_16_2 0
x_11_16_3 0
x_11_16_4 0
x_11_16_5 0
x_11_17_0 0
x_11_17_1 1
x_11_17_2 0
x_11_17_3 0
x_11_17_4 -2.2917660348303589e-16
x_11_17_5 0
x_11_18_0 0
x_11_18_1 0
x_11_18_2 0
x_11_18_3 0
x_11_18_4 0
x_11_18_5 0
x_11_19_0 0
x_11_19_1 0
x_11_19_2 0
x_11_19_3 0
x_11_19_4 0
x_11_19_5 0
x_11_20_0 0
x_11_20_1 0
x_11_20_2 0
x_11_20_3 0
x_11_20_4 0
x_11_20_5 0
x_12_13_0 0
x_12_13_1 0
x_12_13_2 0
x_12_13_3 0
x_12_13_4 0
x_12_13_5 0
x_12_14_0 0
x_12_14_1 0
x_12_14_2 0
x_12_14_3 0
x_12_14_4 0
x_12_14_5 0
x_12_15_0 0
x_12_15_1 0
x_12_15_2 0
x_12_15_3 0
x_12_15_4 0
x_12_15_5 0
x_12_16_0 0
x_12_16_1 1.0000000000000002e+00
x_12_16_2 1
x_12_16_3 1.6930901125533629e-15
x_12_16_4 0
x_12_16_5 0
x_12_17_0 0
x_12_17_1 0
x_12_17_2 0
x_12_17_3 0
x_12_17_4 0
x_12_17_5 0
x_12_18_0 0
x_12_18_1 0
x_12_18_2 2.7755575615628914e-16
x_12_18_3 0
x_12_18_4 1
x_12_18_5 0
x_12_19_0 0
x_12_19_1 0
x_12_19_2 0
x_12_19_3 0
x_12_19_4 0
x_12_19_5 0
x_12_20_0 0
x_12_20_1 0
x_12_20_2 0
x_12_20_3 0
x_12_20_4 0
x_12_20_5 0
x_13_14_0 0
x_13_14_1 0
x_13_14_2 0
x_13_14_3 0
x_13_14_4 0
x_13_14_5 0
x_13_15_0 0
x_13_15_1 9.9999999999999956e-01
x_13_15_2 0
x_13_15_3 -6.9388939039072284e-17
x_13_15_4 9.9999999999999944e-01
x_13_15_5 1.3491578499619454e-17
x_13_16_0 0
x_13_16_1 0
x_13_16_2 0
x_13_16_3 0
x_13_16_4 0
x_13_16_5 0
x_13_17_0 0
x_13_17_1 0
x_13_17_2 0
x_13_17_3 0
x_13_17_4 0
x_13_17_5 0
x_13_18_0 0
x_13_18_1 0
x_13_18_2 0
x_13_18_3 0
x_13_18_4 0
x_13_18_5 0
x_13_19_0 0
x_13_19_1 0
x_13_19_2 0
x_13_19_3 0
x_13_19_4 0
x_13_19_5 0
x_13_20_0 0
x_13_20_1 0
x_13_20_2 0
x_13_20_3 0
x_13_20_4 0
x_13_20_5 0
x_14_15_0 0
x_14_15_1 0
x_14_15_2 0
x_14_15_3 0
x_14_15_4 0
x_14_15_5 0
x_14_16_0 0
x_14_16_1 0
x_14_16_2 0
x_14_16_3 0
x_14_16_4 0
x_14_16_5 0
x_14_17_0 0
x_14_17_1 0
x_14_17_2 0
x_14_17_3 0
x_14_17_4 0
x_14_17_5 0
x_14_18_0 0
x_14_18_1 0
x_14_18_2 0
x_14_18_3 0
x_14_18_4 0
x_14_18_5 0
x_14_19_0 0
x_14_19_1 0
x_14_19_2 0
x_14_19_3 0
x_14_19_4 0
x_14_19_5 0
x_14_20_0 0
x_14_20_1 0
x_14_20_2 0
x_14_20_3 9.9999999999999967e-01
x_14_20_4 -1.8183764121318864e-15
x_14_20_5 6.8714360114091257e-16
x_15_16_0 0
x_15_16_1 0
x_15_16_2 0
x_15_16_3 0
x_15_16_4 0
x_15_16_5 0
x_15_17_0 0
x_15_17_1 0
x_15_17_2 0
x_15_17_3 0
x_15_17_4 0
x_15_17_5 0
x_15_18_0 0
x_15_18_1 0
x_15_18_2 0
x_15_18_3 0
x_15_18_4 0
x_15_18_5 0
x_15_19_0 0
x_15_19_1 0
x_15_19_2 0
x_15_19_3 9.9999999999999845e-01
x_15_19_4 1.0755285551056208e-15
x_15_19_5 1.5304187519415393e-16
x_15_20_0 0
x_15_20_1 0
x_15_20_2 0
x_15_20_3 -2.4702462297909729e-15
x_15_20_4 -1.8731151447467568e-15
x_15_20_5 -2.4980018054066007e-16
x_16_17_0 0
x_16_17_1 0
x_16_17_2 0
x_16_17_3 0
x_16_17_4 0
x_16_17_5 0
x_16_18_0 0
x_16_18_1 0
x_16_18_2 -2.7755575615628914e-16
x_16_18_3 8.5367705483468674e-16
x_16_18_4 0
x_16_18_5 8.6716863333430629e-16
x_16_19_0 0
x_16_19_1 0
x_16_19_2 0
x_16_19_3 0
x_16_19_4 0
x_16_19_5 0
x_16_20_0 0
x_16_20_1 0
x_16_20_2 0
x_16_20_3 0
x_16_20_4 9.9999999999999933e-01
x_16_20_5 -7.9816590360342822e-16
x_17_18_0 0
x_17_18_1 1
x_17_18_2 1.0000000000000002e+00
x_17_18_3 -2.5745227430036784e-15
x_17_18_4 1
x_17_18_5 0
x_17_19_0 0
x_17_19_1 0
x_17_19_2 8.3266726846886642e-17
x_17_19_3 0
x_17_19_4 0
x_17_19_5 -5.4836572306276820e-16
x_17_20_0 0
x_17_20_1 0
x_17_20_2 0
x_17_20_3 0
x_17_20_4 1
x_17_20_5 2.9856554252210788e-16
x_18_19_0 0
x_18_19_1 0
x_18_19_2 0
x_18_19_3 0
x_18_19_4 0
x_18_19_5 0
x_18_20_0 0
x_18_20_1 0
x_18_20_2 0
x_18_20_3 -8.5367705483468654e-16
x_18_20_4 -2.2204460492503131e-16
x_18_20_5 -2.1229153252874174e-15
x_19_20_0 0
x_19_20_1 1
x_19_20_2 0
x_19_20_3 1
x_19_20_4 1.0755285551056208e-15
x_19_20_5 3.6756827225298545e-16
